c Standarized MaxSat Instance
c{
c "sha1sum": "26290c0f1ce81cbe8bc615b0ec959f5b71280fd7",
c "nvars": 42,
c "ncls": 1310,
c "nhards": 0,
c "nhard_len_stats":
c    { "min": 0, "max": 0, "ave": 0.00,
c      "stddev": 0.00 },
c "nsofts": 1310,
c "nsoft_len_stats":
c    { "min": 2, "max": 2, "ave": 2.00,
c      "stddev": 0.00 },
c "nsoft_wts": 10,
c "soft_wt_stats":
c    { "min": 1, "max": 10, "ave": 5.70,
c      "stddev": 2.81 }
c}
c------------------------------------------------------------
c File  p_hat500-3.clq
c
c Source: P. Soriano and M. Gendreau at  patrick@crt.umontreal.ca
c
c Reference: p-hat graphs are generated with the p-hat generator
c 	      which is a generalization of the classical uniform
c 	      random graph generator.
c 	      Graphs generated with p-hat have wider node degree spread
c 	      and larger cliques than uniform graphs.
c
c NOTE: September 23, 1993 Corrected corrupted file at DIMACS.
c
c
c Generation parameters: 
c 	n =    500 a =  0.50  b =  1.00  Expected density =  0.75
c	Seed =      12513       Real density =  0.752
c
p wcnf 42 1310 7469
9 1 2 0
9 -1 -2 0
4 1 3 0
4 -1 -3 0
8 1 4 0
8 -1 -4 0
8 1 5 0
8 -1 -5 0
10 1 6 0
10 -1 -6 0
2 1 8 0
2 -1 -8 0
4 1 10 0
4 -1 -10 0
8 1 11 0
8 -1 -11 0
3 1 12 0
3 -1 -12 0
6 1 13 0
6 -1 -13 0
5 1 14 0
5 -1 -14 0
7 1 15 0
7 -1 -15 0
4 1 16 0
4 -1 -16 0
6 1 17 0
6 -1 -17 0
10 1 18 0
10 -1 -18 0
10 1 19 0
10 -1 -19 0
7 1 20 0
7 -1 -20 0
8 1 22 0
8 -1 -22 0
2 1 24 0
2 -1 -24 0
7 1 25 0
7 -1 -25 0
1 1 26 0
1 -1 -26 0
3 1 27 0
3 -1 -27 0
2 1 30 0
2 -1 -30 0
9 1 31 0
9 -1 -31 0
2 1 32 0
2 -1 -32 0
5 1 33 0
5 -1 -33 0
2 1 34 0
2 -1 -34 0
2 1 35 0
2 -1 -35 0
10 1 36 0
10 -1 -36 0
3 1 37 0
3 -1 -37 0
6 1 38 0
6 -1 -38 0
9 1 39 0
9 -1 -39 0
7 1 40 0
7 -1 -40 0
3 1 41 0
3 -1 -41 0
7 1 42 0
7 -1 -42 0
6 2 3 0
6 -2 -3 0
5 2 4 0
5 -2 -4 0
10 2 5 0
10 -2 -5 0
3 2 6 0
3 -2 -6 0
8 2 7 0
8 -2 -7 0
6 2 8 0
6 -2 -8 0
8 2 9 0
8 -2 -9 0
5 2 12 0
5 -2 -12 0
9 2 14 0
9 -2 -14 0
3 2 16 0
3 -2 -16 0
4 2 19 0
4 -2 -19 0
9 2 20 0
9 -2 -20 0
10 2 22 0
10 -2 -22 0
1 2 23 0
1 -2 -23 0
10 2 24 0
10 -2 -24 0
6 2 26 0
6 -2 -26 0
1 2 27 0
1 -2 -27 0
2 2 28 0
2 -2 -28 0
7 2 29 0
7 -2 -29 0
9 2 30 0
9 -2 -30 0
4 2 31 0
4 -2 -31 0
1 2 32 0
1 -2 -32 0
1 2 33 0
1 -2 -33 0
5 2 34 0
5 -2 -34 0
1 2 37 0
1 -2 -37 0
3 2 38 0
3 -2 -38 0
10 2 39 0
10 -2 -39 0
10 2 40 0
10 -2 -40 0
9 2 41 0
9 -2 -41 0
3 2 42 0
3 -2 -42 0
6 3 5 0
6 -3 -5 0
4 3 7 0
4 -3 -7 0
8 3 8 0
8 -3 -8 0
6 3 9 0
6 -3 -9 0
7 3 12 0
7 -3 -12 0
6 3 15 0
6 -3 -15 0
1 3 17 0
1 -3 -17 0
5 3 19 0
5 -3 -19 0
10 3 20 0
10 -3 -20 0
10 3 22 0
10 -3 -22 0
8 3 24 0
8 -3 -24 0
3 3 25 0
3 -3 -25 0
8 3 26 0
8 -3 -26 0
7 3 27 0
7 -3 -27 0
4 3 29 0
4 -3 -29 0
7 3 30 0
7 -3 -30 0
2 3 31 0
2 -3 -31 0
5 3 32 0
5 -3 -32 0
9 3 33 0
9 -3 -33 0
9 3 34 0
9 -3 -34 0
4 3 36 0
4 -3 -36 0
3 3 38 0
3 -3 -38 0
9 3 39 0
9 -3 -39 0
4 3 40 0
4 -3 -40 0
7 3 41 0
7 -3 -41 0
10 4 5 0
10 -4 -5 0
6 4 6 0
6 -4 -6 0
7 4 7 0
7 -4 -7 0
9 4 8 0
9 -4 -8 0
5 4 9 0
5 -4 -9 0
10 4 10 0
10 -4 -10 0
4 4 11 0
4 -4 -11 0
9 4 12 0
9 -4 -12 0
7 4 13 0
7 -4 -13 0
10 4 15 0
10 -4 -15 0
5 4 16 0
5 -4 -16 0
3 4 17 0
3 -4 -17 0
10 4 19 0
10 -4 -19 0
10 4 21 0
10 -4 -21 0
2 4 22 0
2 -4 -22 0
9 4 23 0
9 -4 -23 0
7 4 25 0
7 -4 -25 0
5 4 26 0
5 -4 -26 0
7 4 27 0
7 -4 -27 0
3 4 29 0
3 -4 -29 0
8 4 30 0
8 -4 -30 0
4 4 31 0
4 -4 -31 0
5 4 32 0
5 -4 -32 0
3 4 33 0
3 -4 -33 0
2 4 34 0
2 -4 -34 0
3 4 35 0
3 -4 -35 0
6 4 36 0
6 -4 -36 0
5 4 37 0
5 -4 -37 0
2 4 38 0
2 -4 -38 0
10 4 39 0
10 -4 -39 0
2 4 40 0
2 -4 -40 0
2 4 41 0
2 -4 -41 0
5 4 42 0
5 -4 -42 0
8 5 6 0
8 -5 -6 0
10 5 9 0
10 -5 -9 0
10 5 10 0
10 -5 -10 0
7 5 12 0
7 -5 -12 0
4 5 13 0
4 -5 -13 0
8 5 14 0
8 -5 -14 0
4 5 15 0
4 -5 -15 0
3 5 17 0
3 -5 -17 0
3 5 19 0
3 -5 -19 0
6 5 20 0
6 -5 -20 0
3 5 21 0
3 -5 -21 0
2 5 23 0
2 -5 -23 0
8 5 24 0
8 -5 -24 0
2 5 25 0
2 -5 -25 0
8 5 29 0
8 -5 -29 0
2 5 30 0
2 -5 -30 0
8 5 31 0
8 -5 -31 0
1 5 33 0
1 -5 -33 0
10 5 34 0
10 -5 -34 0
1 5 37 0
1 -5 -37 0
6 5 38 0
6 -5 -38 0
2 5 39 0
2 -5 -39 0
3 5 40 0
3 -5 -40 0
8 5 41 0
8 -5 -41 0
8 5 42 0
8 -5 -42 0
7 6 7 0
7 -6 -7 0
10 6 8 0
10 -6 -8 0
7 6 10 0
7 -6 -10 0
8 6 11 0
8 -6 -11 0
1 6 12 0
1 -6 -12 0
2 6 13 0
2 -6 -13 0
6 6 14 0
6 -6 -14 0
1 6 15 0
1 -6 -15 0
1 6 16 0
1 -6 -16 0
3 6 17 0
3 -6 -17 0
5 6 19 0
5 -6 -19 0
9 6 20 0
9 -6 -20 0
6 6 22 0
6 -6 -22 0
8 6 25 0
8 -6 -25 0
1 6 26 0
1 -6 -26 0
2 6 29 0
2 -6 -29 0
10 6 30 0
10 -6 -30 0
3 6 31 0
3 -6 -31 0
9 6 32 0
9 -6 -32 0
2 6 33 0
2 -6 -33 0
10 6 34 0
10 -6 -34 0
1 6 35 0
1 -6 -35 0
9 6 36 0
9 -6 -36 0
1 6 37 0
1 -6 -37 0
1 6 38 0
1 -6 -38 0
10 6 39 0
10 -6 -39 0
6 6 40 0
6 -6 -40 0
2 6 41 0
2 -6 -41 0
2 6 42 0
2 -6 -42 0
4 7 9 0
4 -7 -9 0
10 7 11 0
10 -7 -11 0
9 7 12 0
9 -7 -12 0
4 7 14 0
4 -7 -14 0
6 7 15 0
6 -7 -15 0
6 7 16 0
6 -7 -16 0
5 7 17 0
5 -7 -17 0
7 7 18 0
7 -7 -18 0
1 7 19 0
1 -7 -19 0
6 7 20 0
6 -7 -20 0
8 7 21 0
8 -7 -21 0
4 7 22 0
4 -7 -22 0
10 7 23 0
10 -7 -23 0
6 7 24 0
6 -7 -24 0
9 7 25 0
9 -7 -25 0
8 7 27 0
8 -7 -27 0
7 7 30 0
7 -7 -30 0
1 7 31 0
1 -7 -31 0
8 7 32 0
8 -7 -32 0
9 7 33 0
9 -7 -33 0
10 7 34 0
10 -7 -34 0
9 7 36 0
9 -7 -36 0
9 7 39 0
9 -7 -39 0
10 7 41 0
10 -7 -41 0
8 8 11 0
8 -8 -11 0
10 8 12 0
10 -8 -12 0
10 8 13 0
10 -8 -13 0
7 8 14 0
7 -8 -14 0
5 8 15 0
5 -8 -15 0
2 8 16 0
2 -8 -16 0
9 8 17 0
9 -8 -17 0
9 8 18 0
9 -8 -18 0
1 8 19 0
1 -8 -19 0
7 8 22 0
7 -8 -22 0
3 8 23 0
3 -8 -23 0
7 8 24 0
7 -8 -24 0
3 8 25 0
3 -8 -25 0
8 8 26 0
8 -8 -26 0
4 8 27 0
4 -8 -27 0
4 8 28 0
4 -8 -28 0
3 8 29 0
3 -8 -29 0
1 8 30 0
1 -8 -30 0
7 8 31 0
7 -8 -31 0
3 8 32 0
3 -8 -32 0
7 8 33 0
7 -8 -33 0
6 8 34 0
6 -8 -34 0
10 8 35 0
10 -8 -35 0
3 8 36 0
3 -8 -36 0
6 8 38 0
6 -8 -38 0
8 8 39 0
8 -8 -39 0
2 8 40 0
2 -8 -40 0
5 8 41 0
5 -8 -41 0
6 9 11 0
6 -9 -11 0
10 9 12 0
10 -9 -12 0
5 9 17 0
5 -9 -17 0
4 9 18 0
4 -9 -18 0
9 9 20 0
9 -9 -20 0
5 9 21 0
5 -9 -21 0
1 9 23 0
1 -9 -23 0
4 9 25 0
4 -9 -25 0
6 9 26 0
6 -9 -26 0
9 9 31 0
9 -9 -31 0
3 9 32 0
3 -9 -32 0
7 9 34 0
7 -9 -34 0
5 9 35 0
5 -9 -35 0
5 9 36 0
5 -9 -36 0
4 9 37 0
4 -9 -37 0
8 9 38 0
8 -9 -38 0
2 9 39 0
2 -9 -39 0
7 9 40 0
7 -9 -40 0
1 9 41 0
1 -9 -41 0
5 9 42 0
5 -9 -42 0
7 10 12 0
7 -10 -12 0
7 10 14 0
7 -10 -14 0
7 10 15 0
7 -10 -15 0
4 10 17 0
4 -10 -17 0
2 10 18 0
2 -10 -18 0
7 10 20 0
7 -10 -20 0
7 10 23 0
7 -10 -23 0
8 10 24 0
8 -10 -24 0
4 10 25 0
4 -10 -25 0
8 10 26 0
8 -10 -26 0
3 10 27 0
3 -10 -27 0
10 10 28 0
10 -10 -28 0
7 10 29 0
7 -10 -29 0
7 10 30 0
7 -10 -30 0
3 10 31 0
3 -10 -31 0
6 10 32 0
6 -10 -32 0
1 10 34 0
1 -10 -34 0
3 10 36 0
3 -10 -36 0
9 10 37 0
9 -10 -37 0
7 10 38 0
7 -10 -38 0
1 10 39 0
1 -10 -39 0
2 10 40 0
2 -10 -40 0
4 10 41 0
4 -10 -41 0
6 10 42 0
6 -10 -42 0
6 11 12 0
6 -11 -12 0
7 11 13 0
7 -11 -13 0
3 11 14 0
3 -11 -14 0
8 11 15 0
8 -11 -15 0
3 11 16 0
3 -11 -16 0
4 11 17 0
4 -11 -17 0
2 11 19 0
2 -11 -19 0
10 11 20 0
10 -11 -20 0
1 11 21 0
1 -11 -21 0
9 11 23 0
9 -11 -23 0
4 11 24 0
4 -11 -24 0
2 11 25 0
2 -11 -25 0
5 11 26 0
5 -11 -26 0
10 11 28 0
10 -11 -28 0
10 11 29 0
10 -11 -29 0
8 11 30 0
8 -11 -30 0
7 11 31 0
7 -11 -31 0
2 11 32 0
2 -11 -32 0
7 11 33 0
7 -11 -33 0
4 11 38 0
4 -11 -38 0
8 11 40 0
8 -11 -40 0
10 11 41 0
10 -11 -41 0
10 11 42 0
10 -11 -42 0
9 12 13 0
9 -12 -13 0
3 12 14 0
3 -12 -14 0
8 12 15 0
8 -12 -15 0
6 12 16 0
6 -12 -16 0
3 12 17 0
3 -12 -17 0
10 12 18 0
10 -12 -18 0
10 12 19 0
10 -12 -19 0
9 12 20 0
9 -12 -20 0
5 12 21 0
5 -12 -21 0
6 12 22 0
6 -12 -22 0
2 12 24 0
2 -12 -24 0
3 12 25 0
3 -12 -25 0
9 12 26 0
9 -12 -26 0
5 12 28 0
5 -12 -28 0
5 12 29 0
5 -12 -29 0
9 12 30 0
9 -12 -30 0
5 12 31 0
5 -12 -31 0
3 12 32 0
3 -12 -32 0
2 12 33 0
2 -12 -33 0
7 12 34 0
7 -12 -34 0
8 12 35 0
8 -12 -35 0
2 12 36 0
2 -12 -36 0
7 12 37 0
7 -12 -37 0
5 12 38 0
5 -12 -38 0
9 12 39 0
9 -12 -39 0
8 12 40 0
8 -12 -40 0
2 12 41 0
2 -12 -41 0
3 12 42 0
3 -12 -42 0
5 13 14 0
5 -13 -14 0
2 13 16 0
2 -13 -16 0
2 13 17 0
2 -13 -17 0
4 13 18 0
4 -13 -18 0
4 13 19 0
4 -13 -19 0
10 13 22 0
10 -13 -22 0
10 13 24 0
10 -13 -24 0
7 13 25 0
7 -13 -25 0
9 13 26 0
9 -13 -26 0
9 13 27 0
9 -13 -27 0
5 13 28 0
5 -13 -28 0
4 13 29 0
4 -13 -29 0
4 13 30 0
4 -13 -30 0
7 13 31 0
7 -13 -31 0
7 13 34 0
7 -13 -34 0
3 13 35 0
3 -13 -35 0
2 13 36 0
2 -13 -36 0
1 13 39 0
1 -13 -39 0
2 13 40 0
2 -13 -40 0
7 13 41 0
7 -13 -41 0
4 13 42 0
4 -13 -42 0
3 14 15 0
3 -14 -15 0
4 14 16 0
4 -14 -16 0
1 14 17 0
1 -14 -17 0
5 14 18 0
5 -14 -18 0
10 14 19 0
10 -14 -19 0
6 14 20 0
6 -14 -20 0
3 14 21 0
3 -14 -21 0
7 14 23 0
7 -14 -23 0
8 14 24 0
8 -14 -24 0
5 14 27 0
5 -14 -27 0
2 14 28 0
2 -14 -28 0
9 14 29 0
9 -14 -29 0
7 14 30 0
7 -14 -30 0
6 14 32 0
6 -14 -32 0
3 14 33 0
3 -14 -33 0
6 14 34 0
6 -14 -34 0
5 14 37 0
5 -14 -37 0
9 14 39 0
9 -14 -39 0
4 14 40 0
4 -14 -40 0
3 14 41 0
3 -14 -41 0
4 14 42 0
4 -14 -42 0
8 15 16 0
8 -15 -16 0
7 15 17 0
7 -15 -17 0
10 15 18 0
10 -15 -18 0
4 15 19 0
4 -15 -19 0
9 15 20 0
9 -15 -20 0
2 15 21 0
2 -15 -21 0
5 15 22 0
5 -15 -22 0
1 15 23 0
1 -15 -23 0
8 15 24 0
8 -15 -24 0
8 15 25 0
8 -15 -25 0
3 15 26 0
3 -15 -26 0
2 15 27 0
2 -15 -27 0
9 15 28 0
9 -15 -28 0
8 15 29 0
8 -15 -29 0
1 15 30 0
1 -15 -30 0
5 15 31 0
5 -15 -31 0
10 15 32 0
10 -15 -32 0
8 15 33 0
8 -15 -33 0
3 15 34 0
3 -15 -34 0
5 15 35 0
5 -15 -35 0
9 15 37 0
9 -15 -37 0
1 15 38 0
1 -15 -38 0
1 15 39 0
1 -15 -39 0
4 15 40 0
4 -15 -40 0
4 15 41 0
4 -15 -41 0
7 15 42 0
7 -15 -42 0
9 16 17 0
9 -16 -17 0
2 16 18 0
2 -16 -18 0
1 16 19 0
1 -16 -19 0
1 16 20 0
1 -16 -20 0
5 16 23 0
5 -16 -23 0
8 16 24 0
8 -16 -24 0
7 16 25 0
7 -16 -25 0
5 16 27 0
5 -16 -27 0
2 16 28 0
2 -16 -28 0
6 16 30 0
6 -16 -30 0
6 16 34 0
6 -16 -34 0
6 16 37 0
6 -16 -37 0
6 16 38 0
6 -16 -38 0
4 16 39 0
4 -16 -39 0
4 16 40 0
4 -16 -40 0
9 16 41 0
9 -16 -41 0
5 16 42 0
5 -16 -42 0
2 17 18 0
2 -17 -18 0
7 17 19 0
7 -17 -19 0
6 17 21 0
6 -17 -21 0
7 17 22 0
7 -17 -22 0
6 17 23 0
6 -17 -23 0
3 17 24 0
3 -17 -24 0
9 17 25 0
9 -17 -25 0
1 17 27 0
1 -17 -27 0
1 17 28 0
1 -17 -28 0
10 17 29 0
10 -17 -29 0
2 17 30 0
2 -17 -30 0
5 17 31 0
5 -17 -31 0
3 17 32 0
3 -17 -32 0
9 17 33 0
9 -17 -33 0
3 17 34 0
3 -17 -34 0
4 17 35 0
4 -17 -35 0
9 17 37 0
9 -17 -37 0
4 17 38 0
4 -17 -38 0
9 17 39 0
9 -17 -39 0
7 17 41 0
7 -17 -41 0
1 17 42 0
1 -17 -42 0
3 18 20 0
3 -18 -20 0
8 18 21 0
8 -18 -21 0
7 18 22 0
7 -18 -22 0
9 18 23 0
9 -18 -23 0
4 18 24 0
4 -18 -24 0
3 18 26 0
3 -18 -26 0
2 18 29 0
2 -18 -29 0
7 18 31 0
7 -18 -31 0
2 18 32 0
2 -18 -32 0
7 18 33 0
7 -18 -33 0
8 18 36 0
8 -18 -36 0
8 18 37 0
8 -18 -37 0
3 18 38 0
3 -18 -38 0
5 18 39 0
5 -18 -39 0
4 18 40 0
4 -18 -40 0
5 19 20 0
5 -19 -20 0
3 19 21 0
3 -19 -21 0
4 19 22 0
4 -19 -22 0
6 19 23 0
6 -19 -23 0
2 19 24 0
2 -19 -24 0
6 19 27 0
6 -19 -27 0
1 19 28 0
1 -19 -28 0
4 19 29 0
4 -19 -29 0
4 19 30 0
4 -19 -30 0
4 19 31 0
4 -19 -31 0
8 19 33 0
8 -19 -33 0
3 19 34 0
3 -19 -34 0
7 19 35 0
7 -19 -35 0
6 19 36 0
6 -19 -36 0
10 19 38 0
10 -19 -38 0
7 19 39 0
7 -19 -39 0
9 19 40 0
9 -19 -40 0
7 19 41 0
7 -19 -41 0
4 20 21 0
4 -20 -21 0
7 20 22 0
7 -20 -22 0
1 20 25 0
1 -20 -25 0
6 20 26 0
6 -20 -26 0
9 20 27 0
9 -20 -27 0
7 20 29 0
7 -20 -29 0
7 20 30 0
7 -20 -30 0
6 20 31 0
6 -20 -31 0
5 20 32 0
5 -20 -32 0
4 20 34 0
4 -20 -34 0
8 20 36 0
8 -20 -36 0
9 20 37 0
9 -20 -37 0
7 20 38 0
7 -20 -38 0
2 20 39 0
2 -20 -39 0
1 20 41 0
1 -20 -41 0
1 21 22 0
1 -21 -22 0
7 21 24 0
7 -21 -24 0
2 21 25 0
2 -21 -25 0
7 21 26 0
7 -21 -26 0
8 21 27 0
8 -21 -27 0
6 21 28 0
6 -21 -28 0
1 21 29 0
1 -21 -29 0
1 21 30 0
1 -21 -30 0
4 21 31 0
4 -21 -31 0
3 21 32 0
3 -21 -32 0
7 21 33 0
7 -21 -33 0
9 21 34 0
9 -21 -34 0
2 21 37 0
2 -21 -37 0
4 21 38 0
4 -21 -38 0
7 21 39 0
7 -21 -39 0
9 21 42 0
9 -21 -42 0
7 22 24 0
7 -22 -24 0
4 22 25 0
4 -22 -25 0
9 22 26 0
9 -22 -26 0
2 22 27 0
2 -22 -27 0
2 22 28 0
2 -22 -28 0
6 22 30 0
6 -22 -30 0
9 22 31 0
9 -22 -31 0
7 22 32 0
7 -22 -32 0
10 22 33 0
10 -22 -33 0
2 22 34 0
2 -22 -34 0
4 22 35 0
4 -22 -35 0
8 22 38 0
8 -22 -38 0
9 22 39 0
9 -22 -39 0
6 22 40 0
6 -22 -40 0
8 22 42 0
8 -22 -42 0
10 23 24 0
10 -23 -24 0
3 23 25 0
3 -23 -25 0
10 23 26 0
10 -23 -26 0
6 23 27 0
6 -23 -27 0
10 23 28 0
10 -23 -28 0
5 23 29 0
5 -23 -29 0
6 23 31 0
6 -23 -31 0
10 23 33 0
10 -23 -33 0
8 23 34 0
8 -23 -34 0
9 23 35 0
9 -23 -35 0
6 23 36 0
6 -23 -36 0
7 23 37 0
7 -23 -37 0
10 23 38 0
10 -23 -38 0
10 23 39 0
10 -23 -39 0
4 23 40 0
4 -23 -40 0
9 23 41 0
9 -23 -41 0
6 24 25 0
6 -24 -25 0
7 24 26 0
7 -24 -26 0
8 24 30 0
8 -24 -30 0
8 24 31 0
8 -24 -31 0
8 24 32 0
8 -24 -32 0
3 24 33 0
3 -24 -33 0
7 24 34 0
7 -24 -34 0
5 24 35 0
5 -24 -35 0
2 24 36 0
2 -24 -36 0
8 24 37 0
8 -24 -37 0
9 24 39 0
9 -24 -39 0
9 24 40 0
9 -24 -40 0
7 24 41 0
7 -24 -41 0
5 24 42 0
5 -24 -42 0
7 25 27 0
7 -25 -27 0
6 25 28 0
6 -25 -28 0
7 25 30 0
7 -25 -30 0
6 25 31 0
6 -25 -31 0
2 25 32 0
2 -25 -32 0
6 25 33 0
6 -25 -33 0
1 25 34 0
1 -25 -34 0
8 25 35 0
8 -25 -35 0
6 25 36 0
6 -25 -36 0
9 25 40 0
9 -25 -40 0
6 25 41 0
6 -25 -41 0
2 25 42 0
2 -25 -42 0
5 26 27 0
5 -26 -27 0
6 26 29 0
6 -26 -29 0
1 26 30 0
1 -26 -30 0
9 26 31 0
9 -26 -31 0
4 26 32 0
4 -26 -32 0
7 26 34 0
7 -26 -34 0
5 26 35 0
5 -26 -35 0
2 26 38 0
2 -26 -38 0
5 26 39 0
5 -26 -39 0
3 26 40 0
3 -26 -40 0
5 26 41 0
5 -26 -41 0
1 27 28 0
1 -27 -28 0
8 27 29 0
8 -27 -29 0
6 27 30 0
6 -27 -30 0
9 27 31 0
9 -27 -31 0
6 27 32 0
6 -27 -32 0
5 27 34 0
5 -27 -34 0
5 27 36 0
5 -27 -36 0
10 27 37 0
10 -27 -37 0
1 27 39 0
1 -27 -39 0
1 27 40 0
1 -27 -40 0
7 27 41 0
7 -27 -41 0
6 28 30 0
6 -28 -30 0
3 28 32 0
3 -28 -32 0
3 28 33 0
3 -28 -33 0
7 28 34 0
7 -28 -34 0
10 28 37 0
10 -28 -37 0
8 28 38 0
8 -28 -38 0
5 28 39 0
5 -28 -39 0
5 28 41 0
5 -28 -41 0
9 28 42 0
9 -28 -42 0
10 29 30 0
10 -29 -30 0
10 29 31 0
10 -29 -31 0
9 29 32 0
9 -29 -32 0
8 29 34 0
8 -29 -34 0
4 29 36 0
4 -29 -36 0
6 29 38 0
6 -29 -38 0
3 29 39 0
3 -29 -39 0
5 29 41 0
5 -29 -41 0
10 29 42 0
10 -29 -42 0
5 30 31 0
5 -30 -31 0
9 30 32 0
9 -30 -32 0
10 30 34 0
10 -30 -34 0
2 30 36 0
2 -30 -36 0
5 30 38 0
5 -30 -38 0
8 30 39 0
8 -30 -39 0
8 30 40 0
8 -30 -40 0
10 30 41 0
10 -30 -41 0
3 30 42 0
3 -30 -42 0
8 31 32 0
8 -31 -32 0
10 31 35 0
10 -31 -35 0
4 31 36 0
4 -31 -36 0
5 31 37 0
5 -31 -37 0
6 31 38 0
6 -31 -38 0
6 31 39 0
6 -31 -39 0
7 31 40 0
7 -31 -40 0
2 31 41 0
2 -31 -41 0
5 31 42 0
5 -31 -42 0
4 32 34 0
4 -32 -34 0
7 32 35 0
7 -32 -35 0
10 32 36 0
10 -32 -36 0
3 32 37 0
3 -32 -37 0
7 32 38 0
7 -32 -38 0
9 32 39 0
9 -32 -39 0
2 32 40 0
2 -32 -40 0
4 32 41 0
4 -32 -41 0
2 32 42 0
2 -32 -42 0
7 33 34 0
7 -33 -34 0
6 33 36 0
6 -33 -36 0
7 33 37 0
7 -33 -37 0
6 33 38 0
6 -33 -38 0
1 33 39 0
1 -33 -39 0
6 33 40 0
6 -33 -40 0
6 33 41 0
6 -33 -41 0
3 33 42 0
3 -33 -42 0
1 34 35 0
1 -34 -35 0
4 34 36 0
4 -34 -36 0
1 34 37 0
1 -34 -37 0
10 34 38 0
10 -34 -38 0
7 34 39 0
7 -34 -39 0
8 34 40 0
8 -34 -40 0
9 34 41 0
9 -34 -41 0
10 34 42 0
10 -34 -42 0
2 35 37 0
2 -35 -37 0
5 35 40 0
5 -35 -40 0
5 35 41 0
5 -35 -41 0
8 35 42 0
8 -35 -42 0
7 36 37 0
7 -36 -37 0
10 36 38 0
10 -36 -38 0
2 36 39 0
2 -36 -39 0
3 36 40 0
3 -36 -40 0
9 36 41 0
9 -36 -41 0
4 37 38 0
4 -37 -38 0
9 37 39 0
9 -37 -39 0
8 37 40 0
8 -37 -40 0
5 38 39 0
5 -38 -39 0
3 38 40 0
3 -38 -40 0
10 38 41 0
10 -38 -41 0
2 39 40 0
2 -39 -40 0
9 39 41 0
9 -39 -41 0
7 39 42 0
7 -39 -42 0
8 40 41 0
8 -40 -41 0
10 40 42 0
10 -40 -42 0
2 41 42 0
2 -41 -42 0
